N = 4;

ACTORES = { Actor1 , Actor2 , Actor3 , Actor4 };

M = 4;

Escenas =
[| 1 , 0 , 1 , 1 , 10
| 1 , 0 , 1 , 0 , 20
| 0 , 1 , 1 , 1 , 5
| 1 , 0 , 0 , 1 , 8|];

Duracion =
[ 2 , 3 , 1 , 2 ];

Maximo_tiempo_actores =
[0, 0, 0, 4];

E = 2;

Actores_separados =
[|1, 2
|2, 3|];

c_weight = 1.0;

t_weight = 0.0;